16
1 2
1 4
1 6
1 7
1 8
1 10
1 11
1 12
1 13
1 14
1 15
1 16
2 3
2 4
2 6
2 7
2 9
2 11
2 12
2 13
2 16
3 4
3 8
3 11
3 12
3 13
3 14
3 15
3 16
4 5
4 6
4 7
4 9
4 10
4 11
4 12
4 14
5 6
5 7
5 9
5 14
5 15
6 7
6 8
6 9
6 10
6 11
6 12
6 13
6 14
6 15
7 8
7 9
7 10
7 12
7 13
7 15
8 9
8 10
8 12
8 14
9 11
9 12
9 13
9 16
10 11
10 15
10 16
11 12
11 13
11 15
11 16
12 13
12 14
12 15
13 14
13 15
13 16
14 15
14 16
15 16
